\This file was automatically generated by Zimpl
\Problem name: bool.zpl
Maximize
 c1:  +2 x#1 +2 x#2 + x#3 + x#4
Subject to
Bounds
 0 <= x#1 <= +Inf
 0 <= x#2 <= +Inf
 0 <= x#3 <= +Inf
 0 <= x#4 <= +Inf
End
